
(set-logic ALL) 

(declare-datatype MyList ((Nil) (Cons (head Real) (tail MyList)) )) 
(declare-fun l0 () MyList) 
(declare-fun l1 () MyList) 
(declare-fun l2 () MyList) 
(declare-fun l3 () MyList) 
(declare-fun i0 () Real) 
(declare-fun i1 () Real) 
(assert (or (= l2 Nil) (is-Nil l2)) )
(assert (= l2 l0) )
(assert (or (is-Nil Nil) (= l2 l1) (= l3 l2)) )
(assert (or (= l3 Nil) (= l2 l1) (is-Cons l2)) )
(assert (not (= l2 Nil)) )
(assert (= l1 Nil) )
(assert (or (= l2 Nil) (= l1 l3) (= l1 l0) (= l3 Nil)) )
(assert (or (= l2 Nil) (= l3 Nil) (= l1 l1)) )
(check-sat)
